param n := 60;
param c := 10000
param : V : p w :=
   0	 389	 379
   1	 303	 293
   2	 338	 328
   3	 480	 470
   4	 261	 251
   5	 289	 279
   6	 421	 411
   7	 263	 253
   8	 346	 336
   9	 424	 414
  10	 286	 276
  11	 320	 310
  12	 428	 418
  13	 296	 286
  14	 306	 296
  15	 388	 378
  16	 306	 296
  17	 336	 326
  18	 438	 428
  19	 291	 281
  20	 301	 291
  21	 465	 455
  22	 274	 264
  23	 291	 281
  24	 504	 494
  25	 262	 252
  26	 264	 254
  27	 488	 478
  28	 268	 258
  29	 274	 264
  30	 419	 409
  31	 297	 287
  32	 314	 304
  33	 435	 425
  34	 266	 256
  35	 329	 319
  36	 412	 402
  37	 262	 252
  38	 356	 346
  39	 413	 403
  40	 293	 283
  41	 324	 314
  42	 411	 401
  43	 294	 284
  44	 325	 315
  45	 444	 434
  46	 292	 282
  47	 294	 284
  48	 506	 496
  49	 261	 251
  50	 263	 253
  51	 501	 491
  52	 263	 253
  53	 266	 256
  54	 508	 498
  55	 260	 250
  56	 262	 252
  57	 389	 379
  58	 274	 264
  59	 367	 357
;

set E :=
   0	   1
   0	   5
   0	   6
   0	   8
   0	   9
   0	  10
   0	  12
   0	  13
   0	  15
   0	  18
   0	  19
   0	  20
   0	  21
   0	  22
   0	  23
   0	  24
   0	  26
   0	  37
   0	  38
   0	  39
   0	  46
   0	  49
   0	  51
   0	  52
   0	  55
   0	  56
   0	  58
   1	   2
   1	   4
   1	   5
   1	   7
   1	   8
   1	   9
   1	  11
   1	  12
   1	  13
   1	  14
   1	  15
   1	  17
   1	  19
   1	  21
   1	  22
   1	  24
   1	  27
   1	  28
   1	  29
   1	  30
   1	  34
   1	  35
   1	  36
   1	  37
   1	  38
   1	  39
   1	  40
   1	  42
   1	  44
   1	  47
   1	  48
   1	  49
   1	  50
   1	  52
   1	  55
   1	  57
   1	  58
   2	   3
   2	   5
   2	   8
   2	   9
   2	  10
   2	  12
   2	  15
   2	  16
   2	  18
   2	  21
   2	  23
   2	  24
   2	  25
   2	  28
   2	  32
   2	  35
   2	  36
   2	  37
   2	  39
   2	  42
   2	  46
   2	  49
   2	  50
   2	  51
   2	  52
   2	  53
   2	  57
   2	  58
   2	  59
   3	   4
   3	   9
   3	  10
   3	  14
   3	  15
   3	  19
   3	  20
   3	  21
   3	  22
   3	  25
   3	  26
   3	  29
   3	  31
   3	  33
   3	  34
   3	  35
   3	  37
   3	  38
   3	  41
   3	  42
   3	  44
   3	  45
   3	  48
   3	  49
   3	  52
   3	  54
   3	  55
   3	  59
   4	   5
   4	   6
   4	   7
   4	   9
   4	  11
   4	  14
   4	  15
   4	  16
   4	  17
   4	  18
   4	  20
   4	  21
   4	  22
   4	  23
   4	  25
   4	  27
   4	  29
   4	  30
   4	  34
   4	  35
   4	  36
   4	  38
   4	  39
   4	  43
   4	  44
   4	  45
   4	  48
   4	  52
   4	  53
   4	  55
   4	  57
   4	  58
   4	  59
   5	   6
   5	   8
   5	   9
   5	  12
   5	  14
   5	  16
   5	  21
   5	  25
   5	  26
   5	  29
   5	  30
   5	  31
   5	  32
   5	  33
   5	  35
   5	  37
   5	  39
   5	  40
   5	  42
   5	  44
   5	  45
   5	  46
   5	  47
   5	  48
   5	  49
   5	  50
   5	  53
   5	  56
   5	  59
   6	   9
   6	  11
   6	  13
   6	  16
   6	  21
   6	  24
   6	  26
   6	  27
   6	  28
   6	  32
   6	  33
   6	  34
   6	  35
   6	  38
   6	  41
   6	  42
   6	  45
   6	  46
   6	  48
   6	  49
   6	  52
   6	  57
   7	  11
   7	  18
   7	  19
   7	  21
   7	  22
   7	  23
   7	  27
   7	  29
   7	  30
   7	  32
   7	  33
   7	  34
   7	  35
   7	  36
   7	  39
   7	  40
   7	  41
   7	  42
   7	  43
   7	  47
   7	  54
   7	  58
   8	  10
   8	  13
   8	  18
   8	  19
   8	  21
   8	  23
   8	  24
   8	  25
   8	  27
   8	  29
   8	  31
   8	  32
   8	  33
   8	  34
   8	  35
   8	  36
   8	  37
   8	  42
   8	  44
   8	  46
   8	  47
   8	  48
   8	  50
   8	  51
   8	  52
   8	  56
   8	  58
   8	  59
   9	  10
   9	  11
   9	  12
   9	  14
   9	  15
   9	  16
   9	  19
   9	  23
   9	  25
   9	  35
   9	  39
   9	  40
   9	  42
   9	  44
   9	  46
   9	  48
   9	  50
   9	  51
   9	  52
   9	  53
   9	  54
   9	  56
   9	  57
   9	  58
  10	  11
  10	  12
  10	  14
  10	  16
  10	  17
  10	  19
  10	  20
  10	  22
  10	  23
  10	  25
  10	  27
  10	  28
  10	  30
  10	  35
  10	  36
  10	  37
  10	  38
  10	  39
  10	  42
  10	  43
  10	  44
  10	  45
  10	  48
  10	  49
  10	  54
  10	  55
  10	  56
  11	  13
  11	  14
  11	  15
  11	  17
  11	  18
  11	  19
  11	  20
  11	  21
  11	  22
  11	  25
  11	  27
  11	  31
  11	  36
  11	  37
  11	  40
  11	  42
  11	  43
  11	  46
  11	  47
  11	  48
  11	  53
  11	  54
  11	  55
  11	  58
  11	  59
  12	  15
  12	  16
  12	  17
  12	  18
  12	  21
  12	  23
  12	  24
  12	  25
  12	  26
  12	  27
  12	  28
  12	  30
  12	  31
  12	  32
  12	  34
  12	  36
  12	  38
  12	  39
  12	  40
  12	  41
  12	  42
  12	  46
  12	  47
  12	  48
  12	  51
  12	  54
  12	  56
  12	  58
  12	  59
  13	  15
  13	  16
  13	  17
  13	  18
  13	  23
  13	  24
  13	  25
  13	  26
  13	  27
  13	  35
  13	  37
  13	  38
  13	  39
  13	  42
  13	  44
  13	  46
  13	  47
  13	  52
  13	  54
  13	  55
  13	  59
  14	  15
  14	  17
  14	  18
  14	  19
  14	  21
  14	  23
  14	  24
  14	  26
  14	  28
  14	  30
  14	  31
  14	  32
  14	  35
  14	  39
  14	  41
  14	  45
  14	  46
  14	  47
  14	  48
  14	  49
  14	  50
  14	  55
  14	  58
  14	  59
  15	  16
  15	  18
  15	  27
  15	  30
  15	  32
  15	  34
  15	  35
  15	  38
  15	  39
  15	  41
  15	  42
  15	  43
  15	  44
  15	  46
  15	  48
  15	  51
  15	  52
  15	  53
  15	  59
  16	  17
  16	  18
  16	  21
  16	  25
  16	  26
  16	  29
  16	  30
  16	  31
  16	  35
  16	  38
  16	  41
  16	  44
  16	  45
  16	  47
  16	  50
  16	  51
  16	  52
  16	  54
  16	  55
  16	  57
  17	  18
  17	  22
  17	  23
  17	  25
  17	  26
  17	  29
  17	  38
  17	  39
  17	  40
  17	  43
  17	  44
  17	  45
  17	  46
  17	  49
  17	  52
  17	  54
  17	  55
  17	  56
  17	  57
  17	  58
  17	  59
  18	  19
  18	  21
  18	  23
  18	  24
  18	  25
  18	  26
  18	  27
  18	  29
  18	  31
  18	  32
  18	  34
  18	  35
  18	  37
  18	  38
  18	  42
  18	  43
  18	  44
  18	  45
  18	  48
  18	  53
  18	  56
  18	  57
  18	  58
  18	  59
  19	  21
  19	  23
  19	  25
  19	  27
  19	  29
  19	  30
  19	  33
  19	  35
  19	  37
  19	  38
  19	  39
  19	  40
  19	  43
  19	  44
  19	  45
  19	  48
  19	  49
  19	  51
  19	  56
  19	  59
  20	  22
  20	  23
  20	  26
  20	  28
  20	  39
  20	  40
  20	  42
  20	  46
  20	  47
  20	  51
  20	  52
  20	  53
  20	  54
  20	  55
  20	  56
  20	  57
  20	  59
  21	  22
  21	  24
  21	  25
  21	  27
  21	  28
  21	  29
  21	  30
  21	  31
  21	  34
  21	  35
  21	  36
  21	  37
  21	  39
  21	  40
  21	  41
  21	  44
  21	  45
  21	  47
  21	  51
  21	  53
  21	  54
  21	  58
  21	  59
  22	  23
  22	  25
  22	  26
  22	  27
  22	  28
  22	  29
  22	  34
  22	  35
  22	  42
  22	  43
  22	  44
  22	  54
  22	  56
  22	  57
  22	  59
  23	  24
  23	  27
  23	  29
  23	  31
  23	  34
  23	  36
  23	  38
  23	  40
  23	  41
  23	  43
  23	  44
  23	  45
  23	  47
  23	  48
  23	  50
  23	  51
  23	  52
  23	  53
  23	  55
  24	  25
  24	  26
  24	  27
  24	  28
  24	  29
  24	  30
  24	  32
  24	  33
  24	  35
  24	  38
  24	  41
  24	  42
  24	  46
  24	  48
  24	  49
  24	  59
  25	  31
  25	  34
  25	  35
  25	  36
  25	  38
  25	  40
  25	  41
  25	  43
  25	  44
  25	  46
  25	  48
  25	  49
  25	  50
  25	  52
  25	  53
  25	  54
  25	  59
  26	  27
  26	  29
  26	  30
  26	  31
  26	  33
  26	  34
  26	  35
  26	  36
  26	  37
  26	  42
  26	  44
  26	  45
  26	  47
  26	  51
  26	  53
  26	  54
  26	  55
  26	  56
  26	  59
  27	  29
  27	  30
  27	  31
  27	  35
  27	  38
  27	  41
  27	  42
  27	  43
  27	  45
  27	  48
  27	  51
  27	  57
  27	  58
  27	  59
  28	  31
  28	  35
  28	  36
  28	  37
  28	  40
  28	  42
  28	  43
  28	  44
  28	  45
  28	  46
  28	  47
  28	  48
  28	  51
  28	  52
  28	  54
  28	  56
  28	  59
  29	  31
  29	  32
  29	  33
  29	  34
  29	  35
  29	  37
  29	  38
  29	  39
  29	  42
  29	  44
  29	  48
  29	  50
  29	  51
  29	  54
  29	  55
  29	  56
  29	  57
  30	  31
  30	  36
  30	  38
  30	  41
  30	  44
  30	  45
  30	  47
  30	  49
  30	  58
  31	  32
  31	  36
  31	  37
  31	  40
  31	  41
  31	  44
  31	  45
  31	  46
  31	  50
  31	  52
  31	  53
  31	  54
  31	  58
  32	  33
  32	  35
  32	  40
  32	  41
  32	  42
  32	  48
  32	  52
  32	  54
  32	  55
  32	  56
  32	  58
  32	  59
  33	  35
  33	  37
  33	  39
  33	  40
  33	  42
  33	  43
  33	  47
  33	  48
  33	  49
  33	  50
  33	  52
  33	  55
  33	  57
  33	  58
  34	  36
  34	  37
  34	  38
  34	  39
  34	  40
  34	  41
  34	  42
  34	  45
  34	  55
  34	  56
  34	  57
  34	  58
  34	  59
  35	  43
  35	  49
  35	  52
  35	  55
  35	  57
  35	  59
  36	  37
  36	  40
  36	  41
  36	  43
  36	  44
  36	  45
  36	  46
  36	  48
  36	  49
  36	  50
  36	  53
  36	  54
  36	  55
  36	  57
  37	  38
  37	  39
  37	  41
  37	  43
  37	  45
  37	  48
  37	  49
  37	  51
  37	  52
  37	  54
  37	  56
  38	  39
  38	  40
  38	  41
  38	  43
  38	  44
  38	  45
  38	  48
  38	  50
  38	  51
  38	  52
  38	  53
  38	  54
  38	  57
  39	  40
  39	  41
  39	  42
  39	  44
  39	  45
  39	  46
  39	  47
  39	  50
  39	  54
  39	  55
  39	  57
  39	  58
  39	  59
  40	  41
  40	  42
  40	  43
  40	  45
  40	  47
  40	  48
  40	  53
  40	  54
  40	  55
  40	  57
  40	  58
  40	  59
  41	  43
  41	  44
  41	  46
  41	  47
  41	  50
  41	  51
  41	  53
  41	  55
  41	  57
  41	  59
  42	  43
  42	  46
  42	  47
  42	  50
  42	  53
  42	  57
  42	  59
  43	  44
  43	  46
  43	  48
  43	  49
  43	  50
  43	  52
  43	  55
  43	  57
  43	  58
  43	  59
  44	  46
  44	  48
  44	  50
  44	  54
  44	  56
  44	  58
  45	  46
  45	  48
  45	  49
  45	  54
  45	  55
  45	  56
  45	  58
  46	  48
  46	  51
  46	  53
  46	  55
  46	  56
  46	  57
  46	  58
  47	  50
  47	  51
  47	  52
  47	  54
  47	  56
  47	  59
  48	  50
  48	  55
  48	  56
  48	  58
  48	  59
  49	  51
  49	  52
  49	  55
  49	  56
  49	  57
  49	  59
  50	  52
  50	  54
  50	  56
  50	  57
  50	  58
  51	  52
  51	  54
  51	  56
  51	  57
  51	  58
  51	  59
  52	  55
  52	  57
  52	  58
  53	  55
  53	  56
  53	  57
  53	  59
  54	  59
  55	  57
  55	  59
  56	  58
  56	  59
;
